8273
44, 46, 37, 36, 35, 49, 32, 1, 22, 18, 31, 23, 20, 50, 16, 29, 30, 2, 7, 42, 21, 17, 3, 19, 45, 8, 41, 10, 9, 33, 51, 11, 52, 13, 14, 47, 26, 27, 28, 12, 25, 4, 43, 6, 15, 5, 48, 24, 38, 40, 39, 34
